Instance/ab5ab7c13cf745fb88363a360c0b59fc-pulp.mps
*SENSE:Minimize
NAME          MODEL
ROWS
 N  OBJ
 E  C0000000
 E  C0000001
 E  C0000002
 E  C0000003
 E  C0000004
 E  C0000005
 E  C0000006
 E  C0000007
 E  C0000008
 E  C0000009
 E  C0000010
 E  C0000011
 E  C0000012
COLUMNS
    X0000000  C0000000  -5.816771079162e-01
    X0000000  C0000001   9.269796850769e-01
    X0000000  C0000002   9.533680444615e-01
    X0000000  C0000003   2.978422998733e-01
    X0000000  C0000006   2.135918231136e-01
    X0000000  C0000009   1.000000000000e+00
    X0000000  C0000012   1.000000000000e+00
    X0000001  C0000000   4.183228920838e-01
    X0000001  C0000001  -7.302031492309e-02
    X0000001  C0000002   9.533680444615e-01
    X0000001  C0000004   6.444492468785e-01
    X0000001  C0000007   5.834475050372e-01
    X0000001  C0000012   1.000000000000e+00
    X0000002  C0000000   4.183228920838e-01
    X0000002  C0000001   9.269796850769e-01
    X0000002  C0000002  -4.663195553852e-02
    X0000002  C0000005   7.107228042489e-01
    X0000002  C0000008   6.773003184153e-01
    X0000002  C0000012   1.000000000000e+00
    X0000003  C0000000   4.183228920838e-01
    X0000003  C0000003  -7.021577001267e-01
    X0000003  C0000004   6.444492468785e-01
    X0000003  C0000005   7.107228042489e-01
    X0000003  C0000006   2.135918231136e-01
    X0000003  C0000012   1.000000000000e+00
    X0000004  C0000001   9.269796850769e-01
    X0000004  C0000003   2.978422998733e-01
    X0000004  C0000004  -3.555507531215e-01
    X0000004  C0000005   7.107228042489e-01
    X0000004  C0000007   5.834475050372e-01
    X0000004  C0000010   1.000000000000e+00
    X0000004  C0000012   1.000000000000e+00
    X0000005  C0000002   9.533680444615e-01
    X0000005  C0000003   2.978422998733e-01
    X0000005  C0000004   6.444492468785e-01
    X0000005  C0000005  -2.892771957511e-01
    X0000005  C0000008   6.773003184153e-01
    X0000005  C0000012   1.000000000000e+00
    X0000006  C0000000   4.183228920838e-01
    X0000006  C0000003   2.978422998733e-01
    X0000006  C0000006  -7.864081768864e-01
    X0000006  C0000007   5.834475050372e-01
    X0000006  C0000008   6.773003184153e-01
    X0000006  C0000012   1.000000000000e+00
    X0000007  C0000001   9.269796850769e-01
    X0000007  C0000004   6.444492468785e-01
    X0000007  C0000006   2.135918231136e-01
    X0000007  C0000007  -4.165524949628e-01
    X0000007  C0000008   6.773003184153e-01
    X0000007  C0000012   1.000000000000e+00
    X0000008  C0000002   9.533680444615e-01
    X0000008  C0000005   7.107228042489e-01
    X0000008  C0000006   2.135918231136e-01
    X0000008  C0000007   5.834475050372e-01
    X0000008  C0000008  -3.226996815847e-01
    X0000008  C0000011   1.000000000000e+00
    X0000008  C0000012   1.000000000000e+00
    X0000009  OBJ        1.000000000000e+00
RHS
    RHS       C0000000   0.000000000000e+00
    RHS       C0000001   0.000000000000e+00
    RHS       C0000002   0.000000000000e+00
    RHS       C0000003   0.000000000000e+00
    RHS       C0000004   0.000000000000e+00
    RHS       C0000005   0.000000000000e+00
    RHS       C0000006   0.000000000000e+00
    RHS       C0000007   0.000000000000e+00
    RHS       C0000008   0.000000000000e+00
    RHS       C0000009   0.000000000000e+00
    RHS       C0000010   0.000000000000e+00
    RHS       C0000011   0.000000000000e+00
    RHS       C0000012   1.000000000000e+00
BOUNDS
 UP BND       X0000000   1.000000000000e+00
 UP BND       X0000001   1.000000000000e+00
 UP BND       X0000002   1.000000000000e+00
 UP BND       X0000003   1.000000000000e+00
 UP BND       X0000004   1.000000000000e+00
 UP BND       X0000005   1.000000000000e+00
 UP BND       X0000006   1.000000000000e+00
 UP BND       X0000007   1.000000000000e+00
 UP BND       X0000008   1.000000000000e+00
 FX BND       X0000009   0.000000000000e+00
ENDATA
