Instance/ab5ab7c13cf745fb88363a360c0b59fc-pulp.sol
Infeasible - objective value 0.00000000
      0 C0000000               0          6.1587698e-011
      1 C0000001               0         -1.3864943e-010
      2 C0000002               0           2.634602e-011
**       3 C0000003     -0.11193303                       0
      4 C0000004               0         -2.5602551e-010
**       5 C0000005      0.70285346                       0
      6 C0000006               0          1.6499545e-010
**       7 C0000007      0.92001824                       0
**       8 C0000008     -0.67418769                       0
**       9 C0000009     -0.16687613                       0
**      10 C0000010       1.2868206                       0
**      11 C0000011      0.11209645                       0
     12 C0000012               1          1.9789013e-009
**       0 X0000000     -0.16687613                       0
      1 X0000001               0          2.2116218e-019
**       2 X0000002      -1.1199445                       0
      3 X0000003      0.70995511                       0
**       4 X0000004       1.2868206                       0
      5 X0000005               0          -1.701018e-010
      6 X0000006      0.17794845                       0
      7 X0000007               0          3.8068324e-011
      8 X0000008      0.11209645                       0
      9 X0000009               0                       1
